p cnf 289 1
289 0
w 1 0.0701495
w 2 1 1
w 2 -1 0
w 3 2 1
w 3 -2 0
w 4 3 0.151024
w 4 -3 0.622689
w 5 4 1
w 5 -4 0
w 6 5 1
w 6 -5 0
w 7 6 0.81238
w 7 -6 0.508101
w 8 7 0.474807
w 8 -7 0.952426
w 9 8 1
w 9 -8 0
w 10 9 0
w 10 -9 1
w 11 10 0.281559
w 11 -10 0.82726
w 12 11 1
w 12 -11 0
w 13 12 1
w 13 -12 0
w 14 13 0
w 14 -13 1
w 15 14 0.794066
w 15 -14 0.104036
w 16 15 1
w 16 -15 0
w 17 16 0
w 17 -16 1
w 18 1 1
w 18 -1 0
w 19 18 2 1
w 19 18 -2 0
w 19 -18 2 0
w 19 -18 -2 1
w 20 19 3 0.840519
w 20 19 -3 0.530561
w 20 -19 3 0.877242
w 20 -19 -3 0.0132607
w 21 20 4 0
w 21 20 -4 1
w 21 -20 4 1
w 21 -20 -4 0
w 22 21 5 0
w 22 21 -5 1
w 22 -21 5 1
w 22 -21 -5 1
w 23 22 6 0.106157
w 23 22 -6 0.112773
w 23 -22 6 0.634887
w 23 -22 -6 0.210193
w 24 23 7 1
w 24 23 -7 0
w 24 -23 7 0
w 24 -23 -7 1
w 25 24 8 1
w 25 24 -8 0
w 25 -24 8 0
w 25 -24 -8 1
w 26 25 9 0
w 26 25 -9 1
w 26 -25 9 0
w 26 -25 -9 1
w 27 26 10 0
w 27 26 -10 1
w 27 -26 10 1
w 27 -26 -10 1
w 28 27 11 1
w 28 27 -11 0
w 28 -27 11 1
w 28 -27 -11 0
w 29 28 12 1
w 29 28 -12 1
w 29 -28 12 0
w 29 -28 -12 0
w 30 29 13 0
w 30 29 -13 1
w 30 -29 13 1
w 30 -29 -13 1
w 31 30 14 0.150753
w 31 30 -14 0.998423
w 31 -30 14 0.292529
w 31 -30 -14 0.244902
w 32 31 15 1
w 32 31 -15 1
w 32 -31 15 0
w 32 -31 -15 1
w 33 32 16 1
w 33 32 -16 1
w 33 -32 16 0
w 33 -32 -16 0
w 34 33 17 0.968062
w 34 33 -17 0.496695
w 34 -33 17 0.487419
w 34 -33 -17 0.820632
w 35 18 0.884901
w 35 -18 0.77936
w 36 35 19 1
w 36 35 -19 1
w 36 -35 19 0
w 36 -35 -19 0
w 37 36 20 1
w 37 36 -20 1
w 37 -36 20 0
w 37 -36 -20 0
w 38 37 21 1
w 38 37 -21 0
w 38 -37 21 0
w 38 -37 -21 0
w 39 38 22 0.321114
w 39 38 -22 0.241197
w 39 -38 22 0.499341
w 39 -38 -22 0.713629
w 40 39 23 0.73906
w 40 39 -23 0.949919
w 40 -39 23 0.793808
w 40 -39 -23 0.707122
w 41 40 24 1
w 41 40 -24 0
w 41 -40 24 1
w 41 -40 -24 0
w 42 41 25 1
w 42 41 -25 0
w 42 -41 25 1
w 42 -41 -25 1
w 43 42 26 0
w 43 42 -26 1
w 43 -42 26 1
w 43 -42 -26 1
w 44 43 27 1
w 44 43 -27 0
w 44 -43 27 0
w 44 -43 -27 0
w 45 44 28 0
w 45 44 -28 0
w 45 -44 28 1
w 45 -44 -28 1
w 46 45 29 1
w 46 45 -29 1
w 46 -45 29 1
w 46 -45 -29 0
w 47 46 30 1
w 47 46 -30 1
w 47 -46 30 0
w 47 -46 -30 1
w 48 47 31 1
w 48 47 -31 0
w 48 -47 31 0
w 48 -47 -31 0
w 49 48 32 0.00909791
w 49 48 -32 0.261826
w 49 -48 32 0.0987557
w 49 -48 -32 0.330431
w 50 49 33 1
w 50 49 -33 0
w 50 -49 33 1
w 50 -49 -33 1
w 51 50 34 0.702011
w 51 50 -34 0.292648
w 51 -50 34 0.0485428
w 51 -50 -34 0.953985
w 52 35 1
w 52 -35 0
w 53 52 36 0.749816
w 53 52 -36 0.925517
w 53 -52 36 0.326775
w 53 -52 -36 0.359715
w 54 53 37 0
w 54 53 -37 0
w 54 -53 37 1
w 54 -53 -37 1
w 55 54 38 1
w 55 54 -38 0
w 55 -54 38 1
w 55 -54 -38 0
w 56 55 39 0.3973
w 56 55 -39 0.415952
w 56 -55 39 0.877205
w 56 -55 -39 0.56266
w 57 56 40 0.108854
w 57 56 -40 0.875747
w 57 -56 40 0.592697
w 57 -56 -40 0.892135
w 58 57 41 1
w 58 57 -41 0
w 58 -57 41 1
w 58 -57 -41 0
w 59 58 42 0
w 59 58 -42 0
w 59 -58 42 1
w 59 -58 -42 0
w 60 59 43 0
w 60 59 -43 1
w 60 -59 43 1
w 60 -59 -43 1
w 61 60 44 1
w 61 60 -44 1
w 61 -60 44 0
w 61 -60 -44 0
w 62 61 45 0
w 62 61 -45 0
w 62 -61 45 0
w 62 -61 -45 1
w 63 62 46 1
w 63 62 -46 1
w 63 -62 46 0
w 63 -62 -46 0
w 64 63 47 0
w 64 63 -47 1
w 64 -63 47 1
w 64 -63 -47 0
w 65 64 48 0.588236
w 65 64 -48 0.163673
w 65 -64 48 0.137026
w 65 -64 -48 0.718153
w 66 65 49 0
w 66 65 -49 1
w 66 -65 49 1
w 66 -65 -49 1
w 67 66 50 0
w 67 66 -50 1
w 67 -66 50 0
w 67 -66 -50 0
w 68 67 51 0.97477
w 68 67 -51 0.0286438
w 68 -67 51 0.898474
w 68 -67 -51 0.841893
w 69 52 0
w 69 -52 1
w 70 69 53 1
w 70 69 -53 0
w 70 -69 53 1
w 70 -69 -53 1
w 71 70 54 0
w 71 70 -54 0
w 71 -70 54 1
w 71 -70 -54 0
w 72 71 55 1
w 72 71 -55 1
w 72 -71 55 0
w 72 -71 -55 1
w 73 72 56 0
w 73 72 -56 1
w 73 -72 56 0
w 73 -72 -56 1
w 74 73 57 1
w 74 73 -57 1
w 74 -73 57 0
w 74 -73 -57 1
w 75 74 58 0.671632
w 75 74 -58 0.52215
w 75 -74 58 0.424349
w 75 -74 -58 0.217023
w 76 75 59 0
w 76 75 -59 1
w 76 -75 59 0
w 76 -75 -59 0
w 77 76 60 0
w 77 76 -60 0
w 77 -76 60 1
w 77 -76 -60 1
w 78 77 61 0
w 78 77 -61 0
w 78 -77 61 0
w 78 -77 -61 1
w 79 78 62 0
w 79 78 -62 0
w 79 -78 62 1
w 79 -78 -62 1
w 80 79 63 1
w 80 79 -63 0
w 80 -79 63 1
w 80 -79 -63 0
w 81 80 64 0.230843
w 81 80 -64 0.307821
w 81 -80 64 0.466007
w 81 -80 -64 0.655192
w 82 81 65 1
w 82 81 -65 1
w 82 -81 65 0
w 82 -81 -65 1
w 83 82 66 0
w 83 82 -66 0
w 83 -82 66 1
w 83 -82 -66 1
w 84 83 67 1
w 84 83 -67 1
w 84 -83 67 0
w 84 -83 -67 1
w 85 84 68 1
w 85 84 -68 1
w 85 -84 68 1
w 85 -84 -68 0
w 86 69 0
w 86 -69 1
w 87 86 70 1
w 87 86 -70 0
w 87 -86 70 0
w 87 -86 -70 0
w 88 87 71 0.929715
w 88 87 -71 0.347919
w 88 -87 71 0.345596
w 88 -87 -71 0.562901
w 89 88 72 0
w 89 88 -72 0
w 89 -88 72 1
w 89 -88 -72 0
w 90 89 73 0.234408
w 90 89 -73 0.936668
w 90 -89 73 0.833075
w 90 -89 -73 0.204035
w 91 90 74 0
w 91 90 -74 1
w 91 -90 74 0
w 91 -90 -74 0
w 92 91 75 1
w 92 91 -75 1
w 92 -91 75 0
w 92 -91 -75 0
w 93 92 76 1
w 93 92 -76 0
w 93 -92 76 0
w 93 -92 -76 0
w 94 93 77 1
w 94 93 -77 1
w 94 -93 77 1
w 94 -93 -77 0
w 95 94 78 1
w 95 94 -78 0
w 95 -94 78 1
w 95 -94 -78 1
w 96 95 79 0
w 96 95 -79 0
w 96 -95 79 1
w 96 -95 -79 0
w 97 96 80 1
w 97 96 -80 0
w 97 -96 80 0
w 97 -96 -80 0
w 98 97 81 0.713047
w 98 97 -81 0.424021
w 98 -97 81 0.68333
w 98 -97 -81 0.713237
w 99 98 82 0
w 99 98 -82 1
w 99 -98 82 0
w 99 -98 -82 0
w 100 99 83 1
w 100 99 -83 1
w 100 -99 83 1
w 100 -99 -83 0
w 101 100 84 1
w 101 100 -84 0
w 101 -100 84 0
w 101 -100 -84 0
w 102 101 85 1
w 102 101 -85 1
w 102 -101 85 0
w 102 -101 -85 1
w 103 86 0.831241
w 103 -86 0.791604
w 104 103 87 1
w 104 103 -87 1
w 104 -103 87 0
w 104 -103 -87 0
w 105 104 88 0
w 105 104 -88 1
w 105 -104 88 1
w 105 -104 -88 0
w 106 105 89 1
w 106 105 -89 0
w 106 -105 89 0
w 106 -105 -89 0
w 107 106 90 0
w 107 106 -90 0
w 107 -106 90 1
w 107 -106 -90 1
w 108 107 91 1
w 108 107 -91 1
w 108 -107 91 1
w 108 -107 -91 0
w 109 108 92 1
w 109 108 -92 0
w 109 -108 92 0
w 109 -108 -92 0
w 110 109 93 0
w 110 109 -93 1
w 110 -109 93 1
w 110 -109 -93 0
w 111 110 94 1
w 111 110 -94 0
w 111 -110 94 1
w 111 -110 -94 0
w 112 111 95 0.332647
w 112 111 -95 0.373993
w 112 -111 95 0.468644
w 112 -111 -95 0.570764
w 113 112 96 1
w 113 112 -96 0
w 113 -112 96 1
w 113 -112 -96 0
w 114 113 97 0.25514
w 114 113 -97 0.0867635
w 114 -113 97 0.666724
w 114 -113 -97 0.93538
w 115 114 98 1
w 115 114 -98 0
w 115 -114 98 0
w 115 -114 -98 1
w 116 115 99 0.340753
w 116 115 -99 0.995253
w 116 -115 99 0.170395
w 116 -115 -99 0.352928
w 117 116 100 0
w 117 116 -100 1
w 117 -116 100 1
w 117 -116 -100 1
w 118 117 101 0.366512
w 118 117 -101 0.343367
w 118 -117 101 0.295005
w 118 -117 -101 0.835156
w 119 118 102 0.930884
w 119 118 -102 0.609656
w 119 -118 102 0.250277
w 119 -118 -102 0.845735
w 120 103 0
w 120 -103 1
w 121 120 104 0
w 121 120 -104 1
w 121 -120 104 1
w 121 -120 -104 1
w 122 121 105 1
w 122 121 -105 0
w 122 -121 105 1
w 122 -121 -105 0
w 123 122 106 1
w 123 122 -106 0
w 123 -122 106 1
w 123 -122 -106 1
w 124 123 107 0
w 124 123 -107 1
w 124 -123 107 0
w 124 -123 -107 0
w 125 124 108 0
w 125 124 -108 1
w 125 -124 108 0
w 125 -124 -108 0
w 126 125 109 0.281171
w 126 125 -109 0.554547
w 126 -125 109 0.104518
w 126 -125 -109 0.520884
w 127 126 110 1
w 127 126 -110 0
w 127 -126 110 0
w 127 -126 -110 0
w 128 127 111 1
w 128 127 -111 0
w 128 -127 111 0
w 128 -127 -111 1
w 129 128 112 0
w 129 128 -112 0
w 129 -128 112 0
w 129 -128 -112 1
w 130 129 113 0
w 130 129 -113 1
w 130 -129 113 1
w 130 -129 -113 1
w 131 130 114 1
w 131 130 -114 1
w 131 -130 114 0
w 131 -130 -114 1
w 132 131 115 1
w 132 131 -115 0
w 132 -131 115 0
w 132 -131 -115 0
w 133 132 116 1
w 133 132 -116 0
w 133 -132 116 0
w 133 -132 -116 0
w 134 133 117 0
w 134 133 -117 0
w 134 -133 117 1
w 134 -133 -117 1
w 135 134 118 1
w 135 134 -118 1
w 135 -134 118 0
w 135 -134 -118 0
w 136 135 119 0.0834225
w 136 135 -119 0.137003
w 136 -135 119 0.305621
w 136 -135 -119 0.631948
w 137 120 0
w 137 -120 1
w 138 137 121 0.516624
w 138 137 -121 0.302699
w 138 -137 121 0.993668
w 138 -137 -121 0.735167
w 139 138 122 0
w 139 138 -122 0
w 139 -138 122 1
w 139 -138 -122 0
w 140 139 123 0.157261
w 140 139 -123 0.765631
w 140 -139 123 0.505019
w 140 -139 -123 0.571556
w 141 140 124 0.703173
w 141 140 -124 0.740626
w 141 -140 124 0.384829
w 141 -140 -124 0.217302
w 142 141 125 1
w 142 141 -125 0
w 142 -141 125 1
w 142 -141 -125 0
w 143 142 126 1
w 143 142 -126 1
w 143 -142 126 1
w 143 -142 -126 0
w 144 143 127 0.908894
w 144 143 -127 0.11543
w 144 -143 127 0.0675156
w 144 -143 -127 0.902562
w 145 144 128 0.165372
w 145 144 -128 0.486043
w 145 -144 128 0.908825
w 145 -144 -128 0.579271
w 146 145 129 0
w 146 145 -129 0
w 146 -145 129 1
w 146 -145 -129 0
w 147 146 130 0
w 147 146 -130 0
w 147 -146 130 0
w 147 -146 -130 1
w 148 147 131 1
w 148 147 -131 0
w 148 -147 131 0
w 148 -147 -131 1
w 149 148 132 1
w 149 148 -132 0
w 149 -148 132 0
w 149 -148 -132 0
w 150 149 133 1
w 150 149 -133 0
w 150 -149 133 0
w 150 -149 -133 0
w 151 150 134 1
w 151 150 -134 0
w 151 -150 134 0
w 151 -150 -134 1
w 152 151 135 1
w 152 151 -135 1
w 152 -151 135 1
w 152 -151 -135 0
w 153 152 136 0.333313
w 153 152 -136 0.268284
w 153 -152 136 0.756136
w 153 -152 -136 0.382026
w 154 137 1
w 154 -137 0
w 155 154 138 0
w 155 154 -138 1
w 155 -154 138 1
w 155 -154 -138 1
w 156 155 139 0.719917
w 156 155 -139 0.114686
w 156 -155 139 0.53855
w 156 -155 -139 0.797369
w 157 156 140 1
w 157 156 -140 1
w 157 -156 140 0
w 157 -156 -140 0
w 158 157 141 0
w 158 157 -141 0
w 158 -157 141 0
w 158 -157 -141 1
w 159 158 142 0
w 159 158 -142 0
w 159 -158 142 1
w 159 -158 -142 1
w 160 159 143 0
w 160 159 -143 1
w 160 -159 143 1
w 160 -159 -143 0
w 161 160 144 1
w 161 160 -144 0
w 161 -160 144 0
w 161 -160 -144 0
w 162 161 145 0.268941
w 162 161 -145 0.00944144
w 162 -161 145 0.0494458
w 162 -161 -145 0.807491
w 163 162 146 0.640666
w 163 162 -146 0.88146
w 163 -162 146 0.797062
w 163 -162 -146 0.775935
w 164 163 147 1
w 164 163 -147 1
w 164 -163 147 0
w 164 -163 -147 0
w 165 164 148 0.504139
w 165 164 -148 0.452039
w 165 -164 148 0.91262
w 165 -164 -148 0.498066
w 166 165 149 0.404542
w 166 165 -149 0.760278
w 166 -165 149 0.180741
w 166 -165 -149 0.27849
w 167 166 150 1
w 167 166 -150 1
w 167 -166 150 1
w 167 -166 -150 0
w 168 167 151 1
w 168 167 -151 1
w 168 -167 151 0
w 168 -167 -151 1
w 169 168 152 0.616471
w 169 168 -152 0.229584
w 169 -168 152 0.557312
w 169 -168 -152 0.00988158
w 170 169 153 0
w 170 169 -153 0
w 170 -169 153 0
w 170 -169 -153 1
w 171 154 0
w 171 -154 1
w 172 171 155 0.84147
w 172 171 -155 0.267566
w 172 -171 155 0.249112
w 172 -171 -155 0.601748
w 173 172 156 1
w 173 172 -156 1
w 173 -172 156 1
w 173 -172 -156 0
w 174 173 157 0
w 174 173 -157 0
w 174 -173 157 0
w 174 -173 -157 1
w 175 174 158 1
w 175 174 -158 0
w 175 -174 158 1
w 175 -174 -158 0
w 176 175 159 1
w 176 175 -159 1
w 176 -175 159 0
w 176 -175 -159 1
w 177 176 160 0
w 177 176 -160 1
w 177 -176 160 1
w 177 -176 -160 0
w 178 177 161 1
w 178 177 -161 0
w 178 -177 161 1
w 178 -177 -161 1
w 179 178 162 0
w 179 178 -162 0
w 179 -178 162 0
w 179 -178 -162 1
w 180 179 163 0.899651
w 180 179 -163 0.00976628
w 180 -179 163 0.406981
w 180 -179 -163 0.235719
w 181 180 164 0
w 181 180 -164 0
w 181 -180 164 1
w 181 -180 -164 0
w 182 181 165 0.393377
w 182 181 -165 0.371877
w 182 -181 165 0.69178
w 182 -181 -165 0.212188
w 183 182 166 0
w 183 182 -166 1
w 183 -182 166 0
w 183 -182 -166 1
w 184 183 167 0.475059
w 184 183 -167 0.830148
w 184 -183 167 0.22629
w 184 -183 -167 0.632261
w 185 184 168 1
w 185 184 -168 1
w 185 -184 168 0
w 185 -184 -168 1
w 186 185 169 0.635996
w 186 185 -169 0.358175
w 186 -185 169 0.865982
w 186 -185 -169 0.0429772
w 187 186 170 1
w 187 186 -170 0
w 187 -186 170 0
w 187 -186 -170 0
w 188 171 0
w 188 -171 1
w 189 188 172 0
w 189 188 -172 0
w 189 -188 172 0
w 189 -188 -172 1
w 190 189 173 0.120786
w 190 189 -173 0.925441
w 190 -189 173 0.923876
w 190 -189 -173 0.0542499
w 191 190 174 0
w 191 190 -174 1
w 191 -190 174 0
w 191 -190 -174 0
w 192 191 175 1
w 192 191 -175 1
w 192 -191 175 0
w 192 -191 -175 1
w 193 192 176 0
w 193 192 -176 1
w 193 -192 176 0
w 193 -192 -176 1
w 194 193 177 1
w 194 193 -177 1
w 194 -193 177 0
w 194 -193 -177 1
w 195 194 178 0
w 195 194 -178 0
w 195 -194 178 0
w 195 -194 -178 1
w 196 195 179 0.98488
w 196 195 -179 0.976698
w 196 -195 179 0.780285
w 196 -195 -179 0.0391299
w 197 196 180 1
w 197 196 -180 0
w 197 -196 180 1
w 197 -196 -180 0
w 198 197 181 0
w 198 197 -181 1
w 198 -197 181 1
w 198 -197 -181 1
w 199 198 182 1
w 199 198 -182 1
w 199 -198 182 0
w 199 -198 -182 1
w 200 199 183 0
w 200 199 -183 0
w 200 -199 183 1
w 200 -199 -183 0
w 201 200 184 0
w 201 200 -184 0
w 201 -200 184 0
w 201 -200 -184 1
w 202 201 185 0.233555
w 202 201 -185 0.502086
w 202 -201 185 0.688674
w 202 -201 -185 0.272685
w 203 202 186 0.222982
w 203 202 -186 0.592354
w 203 -202 186 0.289245
w 203 -202 -186 0.66478
w 204 203 187 1
w 204 203 -187 0
w 204 -203 187 0
w 204 -203 -187 0
w 205 188 1
w 205 -188 0
w 206 205 189 0
w 206 205 -189 1
w 206 -205 189 1
w 206 -205 -189 0
w 207 206 190 0
w 207 206 -190 0
w 207 -206 190 1
w 207 -206 -190 0
w 208 207 191 0.389643
w 208 207 -191 0.500996
w 208 -207 191 0.330012
w 208 -207 -191 0.298033
w 209 208 192 1
w 209 208 -192 0
w 209 -208 192 1
w 209 -208 -192 1
w 210 209 193 0
w 210 209 -193 0
w 210 -209 193 1
w 210 -209 -193 0
w 211 210 194 0
w 211 210 -194 0
w 211 -210 194 1
w 211 -210 -194 0
w 212 211 195 0.11724
w 212 211 -195 0.213921
w 212 -211 195 0.736769
w 212 -211 -195 0.25191
w 213 212 196 0.0635617
w 213 212 -196 0.11965
w 213 -212 196 0.0935596
w 213 -212 -196 0.401225
w 214 213 197 0
w 214 213 -197 1
w 214 -213 197 0
w 214 -213 -197 0
w 215 214 198 0
w 215 214 -198 1
w 215 -214 198 0
w 215 -214 -198 1
w 216 215 199 0.285296
w 216 215 -199 0.214345
w 216 -215 199 0.772301
w 216 -215 -199 0.159765
w 217 216 200 0.821962
w 217 216 -200 0.751548
w 217 -216 200 0.167599
w 217 -216 -200 0.886485
w 218 217 201 0
w 218 217 -201 0
w 218 -217 201 0
w 218 -217 -201 1
w 219 218 202 1
w 219 218 -202 1
w 219 -218 202 0
w 219 -218 -202 1
w 220 219 203 1
w 220 219 -203 1
w 220 -219 203 1
w 220 -219 -203 0
w 221 220 204 1
w 221 220 -204 0
w 221 -220 204 0
w 221 -220 -204 1
w 222 205 0.388805
w 222 -205 0.576383
w 223 222 206 0
w 223 222 -206 0
w 223 -222 206 0
w 223 -222 -206 1
w 224 223 207 0
w 224 223 -207 1
w 224 -223 207 0
w 224 -223 -207 0
w 225 224 208 0.421441
w 225 224 -208 0.203437
w 225 -224 208 0.128913
w 225 -224 -208 0.758341
w 226 225 209 0
w 226 225 -209 1
w 226 -225 209 0
w 226 -225 -209 1
w 227 226 210 1
w 227 226 -210 1
w 227 -226 210 1
w 227 -226 -210 0
w 228 227 211 1
w 228 227 -211 1
w 228 -227 211 0
w 228 -227 -211 1
w 229 228 212 1
w 229 228 -212 1
w 229 -228 212 0
w 229 -228 -212 1
w 230 229 213 0.227865
w 230 229 -213 0.0939465
w 230 -229 213 0.754611
w 230 -229 -213 0.560378
w 231 230 214 0.176052
w 231 230 -214 0.763815
w 231 -230 214 0.0961379
w 231 -230 -214 0.934393
w 232 231 215 0.600336
w 232 231 -215 0.123194
w 232 -231 215 0.375373
w 232 -231 -215 0.85179
w 233 232 216 1
w 233 232 -216 1
w 233 -232 216 0
w 233 -232 -216 1
w 234 233 217 0.406335
w 234 233 -217 0.898053
w 234 -233 217 0.764791
w 234 -233 -217 0.486554
w 235 234 218 0
w 235 234 -218 1
w 235 -234 218 0
w 235 -234 -218 1
w 236 235 219 0.907524
w 236 235 -219 0.0209106
w 236 -235 219 0.0462191
w 236 -235 -219 0.662135
w 237 236 220 0
w 237 236 -220 1
w 237 -236 220 1
w 237 -236 -220 0
w 238 237 221 0.246842
w 238 237 -221 0.709918
w 238 -237 221 0.895773
w 238 -237 -221 0.622215
w 239 222 1
w 239 -222 0
w 240 239 223 0
w 240 239 -223 1
w 240 -239 223 1
w 240 -239 -223 1
w 241 240 224 1
w 241 240 -224 0
w 241 -240 224 0
w 241 -240 -224 0
w 242 241 225 0.868863
w 242 241 -225 0.429431
w 242 -241 225 0.824372
w 242 -241 -225 0.776387
w 243 242 226 0
w 243 242 -226 1
w 243 -242 226 0
w 243 -242 -226 0
w 244 243 227 1
w 244 243 -227 0
w 244 -243 227 1
w 244 -243 -227 0
w 245 244 228 1
w 245 244 -228 0
w 245 -244 228 1
w 245 -244 -228 0
w 246 245 229 0.550416
w 246 245 -229 0.732805
w 246 -245 229 0.232667
w 246 -245 -229 0.658472
w 247 246 230 1
w 247 246 -230 1
w 247 -246 230 1
w 247 -246 -230 0
w 248 247 231 0
w 248 247 -231 0
w 248 -247 231 0
w 248 -247 -231 1
w 249 248 232 1
w 249 248 -232 1
w 249 -248 232 0
w 249 -248 -232 1
w 250 249 233 0
w 250 249 -233 1
w 250 -249 233 0
w 250 -249 -233 0
w 251 250 234 0
w 251 250 -234 1
w 251 -250 234 1
w 251 -250 -234 1
w 252 251 235 0
w 252 251 -235 1
w 252 -251 235 1
w 252 -251 -235 1
w 253 252 236 0.3094
w 253 252 -236 0.856095
w 253 -252 236 0.289203
w 253 -252 -236 0.566402
w 254 253 237 0
w 254 253 -237 0
w 254 -253 237 1
w 254 -253 -237 0
w 255 254 238 0
w 255 254 -238 0
w 255 -254 238 1
w 255 -254 -238 0
w 256 239 1
w 256 -239 0
w 257 256 240 1
w 257 256 -240 0
w 257 -256 240 1
w 257 -256 -240 0
w 258 257 241 1
w 258 257 -241 0
w 258 -257 241 1
w 258 -257 -241 1
w 259 258 242 0.931801
w 259 258 -242 0.562519
w 259 -258 242 0.773013
w 259 -258 -242 0.241202
w 260 259 243 1
w 260 259 -243 1
w 260 -259 243 0
w 260 -259 -243 1
w 261 260 244 1
w 261 260 -244 1
w 261 -260 244 1
w 261 -260 -244 0
w 262 261 245 0.29942
w 262 261 -245 0.988014
w 262 -261 245 0.39995
w 262 -261 -245 0.91765
w 263 262 246 0
w 263 262 -246 1
w 263 -262 246 1
w 263 -262 -246 1
w 264 263 247 0
w 264 263 -247 0
w 264 -263 247 1
w 264 -263 -247 1
w 265 264 248 1
w 265 264 -248 0
w 265 -264 248 1
w 265 -264 -248 0
w 266 265 249 1
w 266 265 -249 1
w 266 -265 249 0
w 266 -265 -249 0
w 267 266 250 1
w 267 266 -250 0
w 267 -266 250 1
w 267 -266 -250 1
w 268 267 251 1
w 268 267 -251 0
w 268 -267 251 1
w 268 -267 -251 1
w 269 268 252 0
w 269 268 -252 0
w 269 -268 252 1
w 269 -268 -252 1
w 270 269 253 1
w 270 269 -253 1
w 270 -269 253 1
w 270 -269 -253 0
w 271 270 254 0
w 271 270 -254 1
w 271 -270 254 0
w 271 -270 -254 0
w 272 271 255 1
w 272 271 -255 1
w 272 -271 255 1
w 272 -271 -255 0
w 273 256 1
w 273 -256 0
w 274 273 257 0.762977
w 274 273 -257 0.976837
w 274 -273 257 0.669438
w 274 -273 -257 0.0924695
w 275 274 258 0
w 275 274 -258 1
w 275 -274 258 0
w 275 -274 -258 1
w 276 275 259 0.663627
w 276 275 -259 0.297766
w 276 -275 259 0.256084
w 276 -275 -259 0.108257
w 277 276 260 1
w 277 276 -260 1
w 277 -276 260 1
w 277 -276 -260 0
w 278 277 261 0
w 278 277 -261 1
w 278 -277 261 0
w 278 -277 -261 0
w 279 278 262 0
w 279 278 -262 1
w 279 -278 262 0
w 279 -278 -262 0
w 280 279 263 0
w 280 279 -263 1
w 280 -279 263 1
w 280 -279 -263 0
w 281 280 264 1
w 281 280 -264 0
w 281 -280 264 1
w 281 -280 -264 1
w 282 281 265 1
w 282 281 -265 0
w 282 -281 265 0
w 282 -281 -265 0
w 283 282 266 0
w 283 282 -266 1
w 283 -282 266 0
w 283 -282 -266 1
w 284 283 267 0.28343
w 284 283 -267 0.105576
w 284 -283 267 0.208447
w 284 -283 -267 0.740015
w 285 284 268 1
w 285 284 -268 1
w 285 -284 268 1
w 285 -284 -268 0
w 286 285 269 1
w 286 285 -269 0
w 286 -285 269 0
w 286 -285 -269 0
w 287 286 270 0
w 287 286 -270 0
w 287 -286 270 1
w 287 -286 -270 0
w 288 287 271 0.951521
w 288 287 -271 0.109776
w 288 -287 271 0.881436
w 288 -287 -271 0.89577
w 289 288 272 0.0307734
w 289 288 -272 0.435469
w 289 -288 272 0.540045
w 289 -288 -272 0.895969